files/upTests/_functions/setOfFuncTupleSetMatrix/0001.eprime
language ESSENCE' 1.0

given a: int
given b: int
find fs_Explicit_Matrix1D_tuple1_tuple1_Explicit_Explicit:
        matrix indexed by [int(1..1),
                           int(a..b),
                           int(1..2),
                           int(1..1),
                           int(1..1)] of int(18, 19)
find fs_Explicit_Matrix1D_tuple1_tuple2:
        matrix indexed by [int(1..1), int(a..b), int(1..2)] of int(16, 27)
find fs_Explicit_Matrix1D_tuple2:
        matrix indexed by [int(1..1), int(a..b), int(1..2)] of int(11, 12)
such that
    forAll v__0 : int(a..b)
        . allDiff(fs_Explicit_Matrix1D_tuple1_tuple1_Explicit_Explicit[1,
                                                                       v__0,
                                                                       1,
                                                                       1,
                                                                       ..])
          /\
          allDiff(fs_Explicit_Matrix1D_tuple1_tuple1_Explicit_Explicit[1,
                                                                       v__0,
                                                                       2,
                                                                       1,
                                                                       ..]),
    forAll v__0 : int(a..b)
        . (forAll v__1 : int(1..1)
               . 1 < v__1
                 ->
                 !(fs_Explicit_Matrix1D_tuple1_tuple1_Explicit_Explicit[1, v__0, 1, v__1, 1]
                   =
                   fs_Explicit_Matrix1D_tuple1_tuple1_Explicit_Explicit[1, v__0, 1, 1, 1]
                   /\
                   fs_Explicit_Matrix1D_tuple1_tuple1_Explicit_Explicit[1, v__0, 1, 1, 1]
                   =
                   fs_Explicit_Matrix1D_tuple1_tuple1_Explicit_Explicit[1, v__0, 1, v__1, 1]))
          /\
          (forAll v__1 : int(1..1)
               . 1 < v__1
                 ->
                 !(fs_Explicit_Matrix1D_tuple1_tuple1_Explicit_Explicit[1, v__0, 2, v__1, 1]
                   =
                   fs_Explicit_Matrix1D_tuple1_tuple1_Explicit_Explicit[1, v__0, 2, 1, 1]
                   /\
                   fs_Explicit_Matrix1D_tuple1_tuple1_Explicit_Explicit[1, v__0, 2, 1, 1]
                   =
                   fs_Explicit_Matrix1D_tuple1_tuple1_Explicit_Explicit[1, v__0, 2, v__1, 1])),
    forAll v__0 : int(1..1)
        . 1 < v__0
          ->
          !(forAll v__1 : int(a..b)
                . fs_Explicit_Matrix1D_tuple1_tuple1_Explicit_Explicit[1, v__1, 1, 1, 1]
                  =
                  fs_Explicit_Matrix1D_tuple1_tuple1_Explicit_Explicit[v__0, v__1, 1, 1, 1]
                  /\
                  fs_Explicit_Matrix1D_tuple1_tuple1_Explicit_Explicit[v__0, v__1, 1, 1, 1]
                  =
                  fs_Explicit_Matrix1D_tuple1_tuple1_Explicit_Explicit[1, v__1, 1, 1, 1]
                  /\
                  (fs_Explicit_Matrix1D_tuple1_tuple1_Explicit_Explicit[v__0, v__1, 1, 1, 1]
                   =
                   fs_Explicit_Matrix1D_tuple1_tuple1_Explicit_Explicit[1, v__1, 1, 1, 1]
                   /\
                   fs_Explicit_Matrix1D_tuple1_tuple1_Explicit_Explicit[1, v__1, 1, 1, 1]
                   =
                   fs_Explicit_Matrix1D_tuple1_tuple1_Explicit_Explicit[v__0, v__1, 1, 1, 1])
                  /\
                  fs_Explicit_Matrix1D_tuple1_tuple2[1, v__1, 1]
                  =
                  fs_Explicit_Matrix1D_tuple1_tuple2[v__0, v__1, 1]
                  /\
                  fs_Explicit_Matrix1D_tuple2[1, v__1, 1]
                  =
                  fs_Explicit_Matrix1D_tuple2[v__0, v__1, 1]
                  /\
                  (fs_Explicit_Matrix1D_tuple1_tuple1_Explicit_Explicit[1, v__1, 2, 1, 1]
                   =
                   fs_Explicit_Matrix1D_tuple1_tuple1_Explicit_Explicit[v__0, v__1, 2, 1, 1]
                   /\
                   fs_Explicit_Matrix1D_tuple1_tuple1_Explicit_Explicit[v__0, v__1, 2, 1, 1]
                   =
                   fs_Explicit_Matrix1D_tuple1_tuple1_Explicit_Explicit[1, v__1, 2, 1, 1]
                   /\
                   (fs_Explicit_Matrix1D_tuple1_tuple1_Explicit_Explicit[v__0, v__1, 2, 1, 1]
                    =
                    fs_Explicit_Matrix1D_tuple1_tuple1_Explicit_Explicit[1, v__1, 2, 1, 1]
                    /\
                    fs_Explicit_Matrix1D_tuple1_tuple1_Explicit_Explicit[1, v__1, 2, 1, 1]
                    =
                    fs_Explicit_Matrix1D_tuple1_tuple1_Explicit_Explicit[v__0, v__1, 2, 1, 1])
                   /\
                   fs_Explicit_Matrix1D_tuple1_tuple2[1, v__1, 2]
                   =
                   fs_Explicit_Matrix1D_tuple1_tuple2[v__0, v__1, 2]
                   /\
                   fs_Explicit_Matrix1D_tuple2[1, v__1, 2]
                   =
                   fs_Explicit_Matrix1D_tuple2[v__0, v__1, 2]))
